p tw 29 39
1 2
1 7
2 3
2 8
3 4
3 9
4 5
4 10
5 6
6 11
7 8
8 9
8 12
9 10
9 13
10 14
11 16
12 13
12 18
13 14
13 19
14 15
14 20
15 16
15 21
16 22
17 18
17 23
18 19
18 24
19 20
20 21
20 25
21 22
23 24
23 26
24 27
25 28
26 27
